
Gurobi 11.0.3 (linux64) logging started Fri Nov 22 14:23:38 2024

Set parameter LogFile to value "/home/yihong/Coding/OR_SUC/SUC_results_bigM100000_thread4/case24_ieee_rts_theta0.5_epsilon0.025_gurobi_seed820000_num_gen100_N_WDR100_load_scaling_factor1_exact_T8quadra_cost.txt"
Set parameter TimeLimit to value 3600
Gurobi Optimizer version 11.0.3 build v11.0.3rc0 (linux64 - "Ubuntu 20.04.6 LTS")

CPU model: AMD EPYC 7532 32-Core Processor, instruction set [SSE2|AVX|AVX2]
Thread count: 64 physical cores, 128 logical processors, using up to 4 threads

Optimize a model with 17083 rows, 10121 columns and 236714 nonzeros
Model fingerprint: 0x9f0c0a20
Model has 800 quadratic constraints
Variable types: 9221 continuous, 900 integer (900 binary)
Coefficient statistics:
  Matrix range     [3e-04, 1e+05]
  QMatrix range    [2e-03, 8e-03]
  QLMatrix range   [1e-01, 6e+01]
  Objective range  [1e+00, 1e+00]
  Bounds range     [1e+00, 1e+00]
  RHS range        [1e+00, 1e+05]
Presolve removed 13989 rows and 4572 columns
Presolve time: 0.07s
Presolved: 3094 rows, 5549 columns, 19575 nonzeros
Presolved model has 800 quadratic constraint(s)
Variable types: 4719 continuous, 830 integer (830 binary)

Root relaxation: objective 2.122661e+04, 2534 iterations, 0.03 seconds (0.04 work units)

    Nodes    |    Current Node    |     Objective Bounds      |     Work
 Expl Unexpl |  Obj  Depth IntInf | Incumbent    BestBd   Gap | It/Node Time

     0     0 21226.6135    0    4          - 21226.6135      -     -    0s
     0     0 100766.052    0  242          - 100766.052      -     -    0s
     0     0 185030.942    0  157          - 185030.942      -     -    0s
     0     0 185037.658    0  157          - 185037.658      -     -    0s
     0     0 185411.091    0  127          - 185411.091      -     -    0s
     0     0 185412.584    0  127          - 185412.584      -     -    0s
     0     0 185412.701    0  127          - 185412.701      -     -    0s
H    0     0                    185496.38551 185412.701  0.05%     -    0s

Cutting planes:
  Gomory: 36
  Implied bound: 199
  MIR: 45
  Flow cover: 68

Explored 1 nodes (7227 simplex iterations) in 1.02 seconds (0.86 work units)
Thread count was 4 (of 128 available processors)

Solution count 1: 185496 

Optimal solution found (tolerance 1.00e-03)
Warning: max constraint violation (1.6530e-09) exceeds tolerance
Best objective 1.854963855082e+05, best bound 1.854127008999e+05, gap 0.0451%
